PARAMETER_FILE = even/even_uncomplete_graph_new/nei/par/random191.par
PROBLEM_FILE = even/even_uncomplete_graph_new/nei/mat/random191.tsp
Successes/Runs = 0/10
Cost.min = 1049, Cost.avg = 1049.00, Cost.max = 1049
Gap.min = 0.0000%, Gap.avg = 0.0000%, Gap.max = 0.0000%
Trials.min = 1000, Trials.avg = 1000.0, Trials.max = 1000
Time.min = 0.89 sec., Time.avg = 1.39 sec., Time.max = 2.13 sec.
Time.total = 14.10 sec.
